NAME: random-78-754
TYPE: TSP
COMMENT: size=78 seed=754
DIMENSION: 158
EDGE_WEIGHT_TYPE: EUC_2D
NODE_COORD_SECTION
+0 478 693
-0 478 693
+1 773 333
-1 531 395
+2 678 98
-2 777 433
+3 946 846
-3 318 109
+4 176 431
-4 377 98
+5 304 927
-5 318 831
+6 454 623
-6 3 641
+7 753 974
-7 296 426
+8 589 673
-8 655 473
+9 547 556
-9 257 109
+10 776 908
-10 354 848
+11 13 792
-11 940 65
+12 641 315
-12 435 442
+13 19 847
-13 982 585
+14 694 412
-14 425 747
+15 134 304
-15 263 816
+16 233 478
-16 258 636
+17 954 897
-17 773 691
+18 214 19
-18 57 306
+19 779 205
-19 72 166
+20 982 58
-20 149 961
+21 680 352
-21 85 354
+22 863 849
-22 527 932
+23 962 639
-23 93 625
+24 294 900
-24 911 65
+25 719 594
-25 982 614
+26 893 75
-26 23 810
+27 582 991
-27 346 266
+28 284 813
-28 53 494
+29 428 326
-29 786 242
+30 44 49
-30 582 168
+31 890 727
-31 773 160
+32 532 715
-32 72 533
+33 717 497
-33 688 110
+34 758 31
-34 960 215
+35 592 734
-35 359 161
+36 37 384
-36 978 991
+37 660 428
-37 85 464
+38 165 476
-38 36 464
+39 441 363
-39 574 569
+40 400 251
-40 431 589
+41 865 563
-41 193 147
+42 6 713
-42 998 527
+43 59 518
-43 85 935
+44 770 539
-44 12 117
+45 129 991
-45 65 212
+46 561 476
-46 720 95
+47 106 777
-47 891 365
+48 746 358
-48 107 480
+49 769 675
-49 809 821
+50 183 167
-50 404 391
+51 41 464
-51 179 493
+52 607 474
-52 164 418
+53 893 490
-53 363 361
+54 91 54
-54 121 192
+55 394 907
-55 427 401
+56 879 910
-56 555 16
+57 174 877
-57 644 103
+58 606 648
-58 937 891
+59 64 918
-59 536 790
+60 112 913
-60 926 148
+61 177 635
-61 513 27
+62 421 366
-62 376 52
+63 31 182
-63 574 988
+64 504 263
-64 736 946
+65 428 622
-65 849 253
+66 794 464
-66 549 873
+67 231 359
-67 119 892
+68 229 330
-68 169 680
+69 97 439
-69 954 936
+70 442 472
-70 548 511
+71 968 428
-71 998 910
+72 921 995
-72 858 920
+73 594 311
-73 166 506
+74 87 522
-74 942 151
+75 934 47
-75 932 345
+76 426 979
-76 343 610
+77 95 156
-77 492 70
+78 179 683
-78 756 654
PRECEDENCE_SECTION
+0 -0
+1 -1
+2 -2
+3 -3
+4 -4
+5 -5
+6 -6
+7 -7
+8 -8
+9 -9
+10 -10
+11 -11
+12 -12
+13 -13
+14 -14
+15 -15
+16 -16
+17 -17
+18 -18
+19 -19
+20 -20
+21 -21
+22 -22
+23 -23
+24 -24
+25 -25
+26 -26
+27 -27
+28 -28
+29 -29
+30 -30
+31 -31
+32 -32
+33 -33
+34 -34
+35 -35
+36 -36
+37 -37
+38 -38
+39 -39
+40 -40
+41 -41
+42 -42
+43 -43
+44 -44
+45 -45
+46 -46
+47 -47
+48 -48
+49 -49
+50 -50
+51 -51
+52 -52
+53 -53
+54 -54
+55 -55
+56 -56
+57 -57
+58 -58
+59 -59
+60 -60
+61 -61
+62 -62
+63 -63
+64 -64
+65 -65
+66 -66
+67 -67
+68 -68
+69 -69
+70 -70
+71 -71
+72 -72
+73 -73
+74 -74
+75 -75
+76 -76
+77 -77
+78 -78
EOF
